1723
68 20 84 9 99 43 57 11 5 53 93 86 58 76 80 94 3 24 60 41 10 55 91 7 39 75 44 42 30 26 54 35 51 90 19 78 66 52 87 13 89 96 28 61 98 21 12 63 71 18 79 6 33 25 69 22 16 65 70 72 59 85 8 40 82 81 97 88 50 29 83 74 37 34 56 36 92 49 47 77 31 4 46 15 38 48 27 14 45 64 2 62 23 95 32 1 73 67 17 
